units		real
atom_style	full


include lammps.ff

thermo          100
thermo_style    custom step temp ke pe etotal

timestep        0.5

fix nvt all nvt temp 300. 300. 100.
dump d all xyz 10 nvt_equil.xyz
dump_modify d element H O
compute ljrdf all rdf 500
fix 1 all ave/time 100 1 100 c_ljrdf[*] file lammps_lj.rdf mode vector ave running overwrite

run 40000


unfix nvt

